========================================================== 
File name: C:\DEGR\assets\definitions\MSRCPSP_Gen\500_20_512_10_B.def
Creation date: Sat May 06 09:16:06 CEST 2023
Website: http://imopse.ii.pwr.edu.pl/ 
Reference: 
Myszkowski P. B., Skowronski M. E., Olech L., Oslizlo K., 
Hybrid Ant Colony Optimization in solving Multi-Skill Resource-Constrained Project Scheduling Problem, 
Soft Computing, DOI: DOI 10.1007/s00500-014-1455-x 
========================================================== 
General characteristics: 
Tasks: 500
Resources: 20
Precedence relations: 510
Number of skill types: 10
========================================================== 
ResourceID 	 Salary 	 Skills 
1	 	 	71.8	 	 Q4: 2 	  Q8: 0 	  Q2: 0 	  Q0: 0 	  Q3: 0 	 
2	 	 	44.3	 	 Q1: 2 	  Q7: 0 	  Q3: 3 	  Q5: 3 	  Q6: 3 	  Q4: 3 	  Q2: 3 	 
3	 	 	41.1	 	 Q1: 0 	  Q8: 0 	  Q3: 3 	  Q4: 3 	 
4	 	 	49.4	 	 Q5: 0 	  Q4: 2 	  Q2: 2 	  Q1: 3 	 
5	 	 	19.0	 	 Q4: 3 	  Q3: 1 	  Q9: 0 	  Q5: 1 	  Q8: 1 	  Q7: 3 	  Q2: 0 	 
6	 	 	58.6	 	 Q0: 2 	  Q3: 1 	  Q2: 2 	  Q8: 0 	  Q9: 0 	 
7	 	 	34.5	 	 Q4: 0 	  Q8: 3 	  Q7: 1 	  Q3: 0 	 
8	 	 	99.3	 	 Q4: 0 	  Q6: 2 	  Q3: 0 	  Q0: 1 	  Q5: 0 	  Q2: 2 	  Q8: 2 	  Q1: 2 	 
9	 	 	63.5	 	 Q4: 3 	  Q1: 2 	 
10	 	 	24.8	 	 Q9: 3 	  Q5: 1 	  Q4: 0 	  Q6: 0 	  Q3: 3 	  Q2: 3 	  Q8: 3 	 
11	 	 	47.2	 	 Q6: 0 	  Q3: 3 	  Q2: 1 	  Q0: 3 	  Q4: 2 	  Q9: 3 	  Q5: 3 	  Q7: 0 	 
12	 	 	21.7	 	 Q4: 3 	  Q5: 1 	  Q9: 1 	 
13	 	 	83.7	 	 Q5: 2 	  Q7: 0 	  Q9: 2 	 
14	 	 	32.5	 	 Q8: 0 	  Q6: 3 	  Q2: 2 	 
15	 	 	19.3	 	 Q4: 1 	  Q6: 0 	  Q0: 3 	  Q7: 3 	  Q3: 2 	  Q5: 1 	  Q2: 1 	 
16	 	 	14.1	 	 Q7: 0 	  Q0: 2 	  Q3: 3 	  Q1: 0 	  Q4: 2 	  Q6: 2 	  Q2: 1 	  Q8: 2 	  Q9: 2 	 
17	 	 	54.3	 	 Q1: 2 	  Q2: 1 	  Q3: 3 	  Q6: 0 	  Q9: 1 	  Q4: 2 	  Q8: 3 	  Q0: 1 	 
18	 	 	92.0	 	 Q6: 0 	  Q1: 0 	  Q0: 2 	  Q4: 3 	  Q7: 3 	  Q2: 0 	 
19	 	 	78.6	 	 Q2: 1 	 
20	 	 	58.3	 	 Q0: 2 	  Q9: 0 	  Q6: 0 	  Q2: 0 	 
========================================================== 
TaskID 	 Duration 	 Skill 	 Predecessor IDs 
1	14	Q3:	1
2	19	Q1:	2
3	15	Q0:	1
4	36	Q4:	3
5	29	Q2:	1
6	9	Q3:	1
7	14	Q8:	2
8	36	Q4:	2
9	13	Q9:	2
10	15	Q2:	0
11	19	Q4:	0
12	16	Q4:	1
13	24	Q0:	2
14	30	Q2:	2
15	18	Q1:	0
16	21	Q7:	3
17	32	Q0:	1
18	14	Q2:	2
19	36	Q3:	0
20	11	Q7:	3
21	38	Q1:	0
22	14	Q9:	1
23	13	Q3:	0
24	40	Q5:	0
25	30	Q7:	1
26	27	Q9:	1
27	36	Q6:	3
28	28	Q7:	1
29	29	Q2:	0
30	36	Q4:	1
31	30	Q8:	3
32	25	Q1:	2
33	11	Q5:	0
34	14	Q8:	2
35	19	Q0:	0
36	39	Q3:	3
37	40	Q5:	3
38	12	Q6:	0
39	33	Q8:	0
40	23	Q5:	1	7
41	12	Q5:	3
42	22	Q1:	0
43	38	Q8:	2
44	35	Q7:	0	12
45	40	Q7:	3
46	18	Q1:	3
47	14	Q1:	2
48	32	Q8:	1
49	18	Q4:	3
50	39	Q6:	0
51	12	Q9:	0
52	26	Q2:	2
53	36	Q3:	0	42
54	16	Q0:	1
55	38	Q5:	1
56	22	Q4:	2
57	23	Q3:	2	50
58	29	Q7:	0
59	29	Q6:	0
60	39	Q5:	1
61	25	Q0:	2
62	13	Q5:	3	46
63	11	Q9:	3
64	21	Q1:	0
65	11	Q5:	3
66	13	Q4:	2
67	15	Q5:	3
68	12	Q2:	0
69	22	Q3:	0	32
70	10	Q0:	2
71	26	Q7:	1	8
72	19	Q7:	0
73	11	Q3:	2
74	23	Q3:	1
75	31	Q8:	3
76	23	Q6:	0
77	39	Q0:	1
78	37	Q0:	1
79	27	Q3:	1
80	28	Q2:	3	40
81	13	Q7:	3
82	36	Q8:	2
83	33	Q0:	0
84	32	Q1:	2
85	18	Q0:	1	17
86	39	Q8:	2	42	59
87	14	Q7:	1
88	40	Q0:	2
89	26	Q5:	3	2	59
90	31	Q8:	2
91	38	Q9:	3	50	14
92	13	Q0:	2
93	11	Q9:	0	54
94	10	Q4:	1
95	12	Q1:	0	24	38	54
96	38	Q6:	2
97	15	Q7:	1
98	13	Q7:	0
99	9	Q9:	1	31
100	22	Q1:	0	62	36
101	23	Q8:	0	20
102	18	Q6:	3	43
103	35	Q1:	3	55
104	10	Q6:	0	78
105	20	Q7:	1
106	31	Q3:	3
107	29	Q6:	0
108	36	Q9:	2
109	27	Q4:	2
110	9	Q5:	2
111	25	Q8:	1
112	26	Q4:	1
113	22	Q9:	3	39
114	26	Q9:	1
115	26	Q2:	3
116	17	Q2:	0	55
117	20	Q4:	0
118	13	Q8:	0	82
119	9	Q7:	1	31	44
120	28	Q7:	1
121	26	Q0:	0
122	14	Q6:	2
123	26	Q2:	0
124	25	Q8:	0	16	80
125	10	Q1:	0
126	10	Q4:	2
127	35	Q8:	3
128	39	Q1:	0	41
129	35	Q4:	3
130	35	Q4:	1
131	38	Q4:	0
132	16	Q9:	2
133	16	Q7:	0
134	19	Q4:	3
135	36	Q7:	1	24
136	34	Q4:	3
137	8	Q9:	0
138	35	Q9:	3
139	13	Q5:	0
140	38	Q7:	1
141	9	Q4:	3
142	32	Q8:	2
143	29	Q1:	2	107	73
144	33	Q0:	2
145	39	Q7:	3
146	34	Q2:	0
147	27	Q6:	0
148	38	Q5:	1	7
149	22	Q0:	0	28
150	17	Q6:	0
151	29	Q4:	3
152	31	Q4:	1
153	11	Q1:	0	39
154	10	Q6:	2	2	102
155	32	Q4:	3
156	33	Q2:	1
157	32	Q6:	2	66
158	23	Q3:	2
159	30	Q6:	2	94
160	14	Q9:	0
161	22	Q5:	3	93
162	13	Q9:	2	31	69
163	37	Q5:	1	49
164	30	Q5:	1
165	32	Q2:	0
166	33	Q7:	3	101
167	19	Q5:	2
168	21	Q6:	2	128
169	26	Q7:	3	119
170	9	Q5:	3	140	81
171	40	Q7:	1
172	29	Q7:	3	77
173	28	Q9:	3
174	12	Q4:	3	83
175	40	Q6:	0	142
176	33	Q7:	3	91
177	10	Q9:	3
178	22	Q0:	1
179	40	Q8:	1
180	14	Q2:	2
181	27	Q0:	0	80	169
182	34	Q4:	2	45
183	17	Q8:	1	55	181	80
184	14	Q9:	0
185	37	Q2:	0	99
186	15	Q7:	3
187	40	Q4:	2
188	11	Q2:	0
189	25	Q1:	3
190	15	Q0:	1
191	23	Q0:	1
192	32	Q6:	2	115	8
193	24	Q3:	2	92	127
194	14	Q4:	2
195	20	Q1:	2
196	12	Q4:	3
197	24	Q2:	1	116
198	20	Q4:	1	107	12
199	20	Q7:	1	36
200	35	Q3:	1
201	14	Q4:	3
202	16	Q8:	0	118	133
203	13	Q8:	3	115
204	24	Q3:	1
205	31	Q0:	1
206	37	Q9:	3
207	37	Q9:	2	139	129	92
208	23	Q8:	2
209	30	Q2:	3	107
210	12	Q8:	1	140
211	14	Q5:	2	97	46	143
212	12	Q6:	3
213	16	Q5:	0	55	158
214	13	Q4:	1	86
215	11	Q8:	3
216	15	Q8:	2	161
217	40	Q3:	0	52	108
218	39	Q9:	2
219	12	Q6:	0	114
220	21	Q5:	3	25	41
221	28	Q8:	1	25
222	26	Q3:	2	136
223	22	Q1:	3	159
224	25	Q3:	3
225	35	Q5:	0
226	20	Q3:	1	216	109
227	30	Q3:	0
228	14	Q8:	0
229	18	Q6:	3
230	21	Q4:	3	26
231	35	Q5:	1
232	37	Q9:	2
233	10	Q9:	1
234	10	Q8:	0	202
235	10	Q9:	3	101
236	26	Q2:	2
237	19	Q1:	2
238	21	Q5:	0	214
239	20	Q8:	2	20
240	17	Q4:	1	24	102
241	39	Q6:	3	60
242	36	Q1:	3
243	39	Q7:	0
244	14	Q0:	0
245	9	Q4:	2	152
246	21	Q1:	3	43
247	28	Q5:	0	178	60	227
248	39	Q0:	2
249	9	Q6:	0
250	36	Q1:	0	19
251	28	Q9:	1	8
252	10	Q0:	0	192	191
253	39	Q1:	2
254	18	Q8:	3
255	29	Q9:	1
256	22	Q8:	2
257	15	Q9:	1	60	253
258	35	Q4:	0
259	15	Q6:	3	192
260	35	Q3:	0
261	14	Q8:	3	254
262	21	Q6:	3	154	128
263	29	Q2:	2	227
264	10	Q2:	0	113	19
265	35	Q6:	3
266	26	Q9:	0
267	13	Q5:	3
268	26	Q8:	0	150	87
269	23	Q3:	0	211
270	38	Q5:	0	80
271	24	Q9:	2	261
272	29	Q3:	2
273	30	Q2:	3
274	19	Q0:	1	35
275	11	Q2:	0	7
276	31	Q0:	3
277	10	Q2:	0
278	9	Q0:	1	74	183
279	19	Q6:	3	254
280	25	Q6:	0	26	256
281	13	Q9:	1	147
282	33	Q5:	0	151	38	8
283	15	Q4:	0	202
284	25	Q4:	3
285	26	Q6:	0	8
286	9	Q2:	1
287	30	Q7:	3
288	39	Q2:	3
289	40	Q0:	0	109
290	40	Q7:	3	141
291	20	Q8:	2	211	118	198
292	34	Q7:	0	284
293	38	Q2:	3	26	233	224
294	11	Q4:	1
295	23	Q3:	3	228	196	33
296	30	Q1:	3	159	105
297	26	Q2:	0	17	187	62
298	24	Q5:	1	98	207	3	268
299	25	Q1:	2	125
300	26	Q8:	0	132
301	15	Q3:	2
302	9	Q0:	1	228
303	15	Q3:	2
304	38	Q5:	0	125
305	17	Q3:	1
306	29	Q0:	2	242	91
307	12	Q0:	3	239	188	73
308	16	Q9:	1	149	87
309	18	Q8:	1
310	38	Q5:	3	272	257	299	13
311	20	Q5:	1
312	21	Q5:	1	270
313	33	Q6:	2	122
314	15	Q1:	0	79	265	283
315	34	Q0:	3	59
316	26	Q0:	1	128	288	1
317	36	Q2:	1	64	2	45	146
318	31	Q8:	3	250	306	299
319	21	Q1:	3	91	33
320	12	Q2:	2	128	54	207	281	250
321	13	Q7:	3	91	224
322	20	Q8:	1	27	272
323	11	Q9:	1
324	15	Q7:	3
325	21	Q9:	1	155
326	19	Q6:	3	175
327	30	Q7:	1	240	154	283
328	24	Q5:	0	208	246	9
329	29	Q8:	0	112	274
330	31	Q7:	1	68
331	36	Q6:	3	104	243	64
332	18	Q5:	2	255	328
333	28	Q8:	0
334	17	Q5:	1	14	205	254	309
335	20	Q2:	2	271
336	10	Q9:	2	141	278	164
337	36	Q9:	3
338	20	Q6:	2	112	213	242
339	20	Q2:	3	291	229
340	19	Q9:	2	128	228
341	18	Q5:	0	254
342	31	Q7:	0	12
343	32	Q2:	1	18	125
344	36	Q5:	3
345	9	Q6:	0	295	27	252
346	34	Q2:	1	118	312	169
347	24	Q6:	2	327
348	25	Q0:	1	3
349	31	Q6:	3
350	26	Q7:	1	281	202	307
351	12	Q6:	2	317	300
352	23	Q9:	0	146	170
353	27	Q9:	3	66
354	37	Q6:	2
355	20	Q7:	3	26	61	15	294	275	98
356	19	Q7:	3	141
357	23	Q1:	3	297	166	327	314	109
358	35	Q9:	2	133	353
359	30	Q6:	3
360	12	Q4:	0
361	23	Q4:	0
362	35	Q9:	1	80	159	319	361
363	32	Q8:	2	126	201
364	27	Q4:	2	301
365	21	Q9:	0	169
366	19	Q9:	2	309
367	37	Q1:	3	146
368	11	Q3:	3	30
369	33	Q8:	2	3	175
370	31	Q3:	3	35
371	17	Q4:	3	84	316
372	30	Q2:	0	179	241
373	39	Q5:	3
374	14	Q5:	1	308
375	23	Q7:	1
376	37	Q6:	0	287	97
377	39	Q5:	1	238
378	14	Q2:	1	288	85
379	38	Q1:	3	131	324	129
380	35	Q3:	2	175
381	8	Q7:	1	322
382	14	Q4:	3	194	166
383	11	Q5:	0	230
384	27	Q4:	0	134
385	31	Q9:	0	47	311
386	9	Q5:	3	144	327	295	58
387	24	Q0:	1	168	97	355
388	39	Q1:	3	45	240	296
389	40	Q7:	0	183	252	81
390	24	Q3:	1	381
391	12	Q0:	1	28
392	10	Q4:	1	42
393	25	Q9:	3
394	18	Q0:	2
395	11	Q2:	2	313	198	139	269
396	10	Q9:	3	60
397	12	Q5:	0	26
398	10	Q8:	1	394
399	22	Q0:	3	78	305	63
400	22	Q5:	3	361
401	13	Q8:	1	147	192
402	12	Q3:	2	356
403	35	Q4:	3	358
404	14	Q2:	0	303
405	39	Q0:	3	313	126	51
406	13	Q7:	0	185
407	16	Q4:	0	41	195
408	12	Q3:	2
409	23	Q9:	2	198	256
410	9	Q4:	2	49
411	39	Q9:	1	140
412	39	Q0:	0
413	16	Q9:	0	60	332	225
414	32	Q9:	3	242	53	271
415	38	Q3:	1
416	26	Q1:	0	95
417	10	Q1:	2	70	148
418	27	Q8:	2	163
419	29	Q3:	3	240	81
420	28	Q5:	2	231	248	229
421	14	Q7:	0	393	228
422	25	Q0:	2	172	105	67	26
423	31	Q5:	1	356	269
424	37	Q5:	3	220	357
425	30	Q0:	0	353
426	19	Q4:	1	276	51
427	34	Q9:	1	186
428	39	Q6:	3	425	211	118	80	90
429	24	Q3:	0
430	38	Q8:	1	119	403
431	37	Q5:	0	284	102	189
432	34	Q6:	2	327
433	31	Q0:	2	67
434	40	Q3:	2	268	65	50
435	24	Q9:	0	116	350
436	28	Q0:	0	62	141
437	38	Q3:	0
438	22	Q0:	2	216
439	19	Q3:	3	390	178	142
440	14	Q8:	2	288	17	120
441	40	Q6:	3	387	58	35
442	18	Q0:	0	63	8	398
443	21	Q9:	3	96	329
444	22	Q0:	0	262	339	65	358	275
445	34	Q5:	1	167
446	34	Q5:	2	332
447	30	Q4:	1	232
448	34	Q8:	0	325	327
449	23	Q2:	1	418	98
450	24	Q0:	1	273	265
451	40	Q0:	1	361
452	15	Q5:	2	61
453	12	Q9:	0	420	89	188
454	23	Q0:	3
455	13	Q7:	1	69	276
456	30	Q8:	1	298	297
457	40	Q1:	2	366	189
458	27	Q8:	2	45	417
459	38	Q5:	0	446
460	28	Q4:	2	84	353	100
461	11	Q2:	0
462	36	Q3:	1	171	80
463	30	Q4:	0	191
464	9	Q0:	0
465	12	Q9:	3	431	42
466	27	Q9:	2
467	12	Q6:	2
468	19	Q2:	3	198
469	19	Q4:	3	281
470	15	Q5:	0	312
471	22	Q8:	2	222	466	53
472	14	Q3:	1	57
473	10	Q4:	2	57
474	40	Q0:	1	3	310	131	145	62
475	15	Q3:	1	455	73	373	74
476	11	Q1:	3	415
477	36	Q4:	0
478	37	Q9:	3	304
479	35	Q0:	1	472
480	20	Q2:	0
481	13	Q2:	0	118
482	39	Q1:	0	198	71	387	147
483	30	Q5:	3	214	186
484	9	Q8:	1	294	358
485	25	Q1:	0	29
486	30	Q2:	2	432	59
487	19	Q2:	1	36
488	28	Q9:	3	143	274	155	181
489	12	Q4:	1	113
490	31	Q4:	2	252	455	313
491	30	Q9:	0	420	371	297
492	28	Q5:	2
493	10	Q1:	3	58	190
494	14	Q7:	0	219
495	30	Q3:	0	170	38
496	18	Q3:	1	201	65	245	193	226
497	15	Q5:	3	247
498	21	Q2:	3	217	265	188	212
499	16	Q0:	0	12
500	17	Q5:	3	235	398	191	347	153
========================================================== 